c "270936.clq"
p edge 100 1344
e 1 17
e 1 18
e 1 19
e 1 20
e 1 23
e 1 25
e 1 27
e 1 28
e 1 29
e 1 30
e 1 32
e 1 33
e 1 34
e 1 35
e 1 36
e 1 38
e 1 40
e 1 41
e 1 43
e 1 51
e 1 53
e 1 55
e 1 57
e 1 60
e 1 62
e 1 63
e 1 64
e 1 66
e 1 68
e 1 74
e 1 75
e 1 76
e 1 78
e 1 90
e 1 91
e 2 17
e 2 18
e 2 20
e 2 21
e 2 25
e 2 26
e 2 29
e 2 34
e 2 36
e 2 38
e 2 39
e 2 41
e 2 46
e 2 49
e 2 55
e 2 61
e 2 62
e 2 64
e 2 66
e 2 68
e 2 72
e 3 17
e 3 18
e 3 19
e 3 20
e 3 22
e 3 25
e 3 27
e 3 29
e 3 30
e 3 31
e 3 34
e 3 47
e 3 55
e 3 59
e 3 71
e 3 75
e 3 78
e 3 83
e 3 88
e 4 17
e 4 18
e 4 19
e 4 20
e 4 23
e 4 25
e 4 26
e 4 27
e 4 32
e 4 34
e 4 35
e 4 46
e 4 54
e 4 62
e 4 70
e 4 74
e 4 79
e 4 80
e 4 82
e 4 93
e 4 97
e 4 98
e 5 17
e 5 18
e 5 19
e 5 20
e 5 21
e 5 22
e 5 23
e 5 24
e 5 25
e 5 26
e 5 27
e 5 28
e 5 30
e 5 32
e 5 33
e 5 38
e 5 39
e 5 43
e 5 51
e 5 60
e 5 74
e 5 79
e 5 81
e 5 93
e 5 95
e 5 100
e 6 17
e 6 18
e 6 19
e 6 20
e 6 21
e 6 22
e 6 23
e 6 24
e 6 26
e 6 27
e 6 29
e 6 30
e 6 31
e 6 32
e 6 35
e 6 36
e 6 37
e 6 39
e 6 41
e 6 42
e 6 47
e 6 51
e 6 56
e 6 57
e 6 61
e 6 82
e 6 84
e 6 86
e 6 88
e 6 89
e 6 91
e 6 95
e 6 98
e 7 17
e 7 18
e 7 19
e 7 20
e 7 21
e 7 22
e 7 23
e 7 29
e 7 32
e 7 41
e 7 42
e 7 56
e 7 67
e 7 87
e 7 96
e 7 97
e 8 17
e 8 18
e 8 19
e 8 20
e 8 21
e 8 23
e 8 24
e 8 25
e 8 26
e 8 27
e 8 28
e 8 29
e 8 31
e 8 32
e 8 36
e 8 39
e 8 49
e 8 65
e 8 70
e 8 72
e 8 77
e 8 79
e 8 81
e 8 82
e 8 90
e 8 96
e 8 97
e 9 17
e 9 18
e 9 19
e 9 20
e 9 21
e 9 22
e 9 24
e 9 26
e 9 27
e 9 28
e 9 30
e 9 31
e 9 32
e 9 33
e 9 35
e 9 37
e 9 41
e 9 44
e 9 45
e 9 48
e 9 52
e 9 66
e 9 70
e 9 73
e 9 76
e 9 85
e 9 96
e 9 100
e 10 17
e 10 20
e 10 30
e 10 32
e 10 45
e 10 58
e 10 64
e 10 74
e 10 80
e 10 81
e 10 89
e 10 95
e 11 17
e 11 18
e 11 19
e 11 21
e 11 22
e 11 23
e 11 24
e 11 25
e 11 28
e 11 29
e 11 33
e 11 35
e 11 36
e 11 37
e 11 47
e 11 48
e 11 64
e 11 76
e 11 92
e 12 17
e 12 18
e 12 19
e 12 20
e 12 21
e 12 22
e 12 23
e 12 24
e 12 25
e 12 28
e 12 30
e 12 33
e 12 34
e 12 36
e 12 39
e 12 40
e 12 41
e 12 44
e 12 45
e 12 51
e 12 52
e 12 54
e 12 58
e 12 59
e 12 61
e 12 63
e 12 72
e 12 77
e 12 84
e 12 87
e 12 98
e 13 17
e 13 18
e 13 19
e 13 21
e 13 22
e 13 24
e 13 31
e 13 35
e 13 37
e 13 45
e 13 58
e 13 77
e 13 89
e 13 94
e 13 96
e 13 99
e 14 17
e 14 18
e 14 19
e 14 20
e 14 21
e 14 22
e 14 23
e 14 26
e 14 27
e 14 28
e 14 32
e 14 37
e 14 40
e 14 43
e 14 45
e 14 49
e 14 62
e 14 63
e 14 69
e 14 93
e 14 95
e 15 17
e 15 18
e 15 19
e 15 20
e 15 21
e 15 22
e 15 23
e 15 24
e 15 29
e 15 30
e 15 31
e 15 35
e 15 43
e 15 44
e 15 47
e 15 49
e 15 50
e 15 51
e 15 54
e 15 55
e 15 57
e 15 58
e 15 60
e 15 61
e 15 66
e 15 77
e 15 78
e 15 79
e 15 80
e 15 90
e 15 94
e 15 100
e 16 17
e 16 18
e 16 19
e 16 21
e 16 22
e 16 24
e 16 27
e 16 28
e 16 33
e 16 45
e 16 46
e 16 48
e 16 64
e 16 66
e 16 74
e 16 88
e 16 92
e 16 93
e 16 94
e 16 96
e 16 99
e 17 18
e 17 19
e 17 20
e 17 21
e 17 22
e 17 23
e 17 24
e 17 25
e 17 26
e 17 27
e 17 28
e 17 29
e 17 31
e 17 33
e 17 34
e 17 36
e 17 38
e 17 40
e 17 42
e 17 43
e 17 49
e 17 50
e 17 51
e 17 52
e 17 56
e 17 57
e 17 58
e 17 62
e 17 63
e 17 65
e 17 69
e 17 71
e 17 73
e 17 75
e 17 78
e 17 79
e 17 84
e 17 85
e 17 86
e 17 89
e 17 90
e 17 91
e 17 92
e 17 95
e 18 19
e 18 20
e 18 21
e 18 22
e 18 23
e 18 24
e 18 25
e 18 26
e 18 27
e 18 28
e 18 30
e 18 31
e 18 32
e 18 33
e 18 36
e 18 37
e 18 38
e 18 39
e 18 41
e 18 44
e 18 45
e 18 46
e 18 48
e 18 49
e 18 50
e 18 51
e 18 54
e 18 55
e 18 58
e 18 60
e 18 61
e 18 63
e 18 64
e 18 68
e 18 72
e 18 78
e 18 79
e 18 83
e 18 84
e 18 87
e 18 88
e 18 95
e 18 97
e 19 20
e 19 21
e 19 22
e 19 23
e 19 24
e 19 25
e 19 26
e 19 29
e 19 30
e 19 31
e 19 32
e 19 33
e 19 34
e 19 35
e 19 37
e 19 39
e 19 40
e 19 44
e 19 47
e 19 49
e 19 51
e 19 52
e 19 53
e 19 56
e 19 57
e 19 58
e 19 65
e 19 66
e 19 68
e 19 78
e 19 79
e 19 84
e 19 85
e 19 88
e 19 94
e 20 21
e 20 22
e 20 23
e 20 24
e 20 25
e 20 26
e 20 27
e 20 28
e 20 29
e 20 30
e 20 31
e 20 33
e 20 34
e 20 35
e 20 37
e 20 38
e 20 40
e 20 41
e 20 42
e 20 46
e 20 47
e 20 48
e 20 49
e 20 50
e 20 51
e 20 53
e 20 54
e 20 55
e 20 56
e 20 57
e 20 59
e 20 61
e 20 63
e 20 67
e 20 68
e 20 71
e 20 73
e 20 84
e 20 86
e 20 88
e 20 92
e 20 94
e 20 99
e 21 22
e 21 23
e 21 24
e 21 25
e 21 26
e 21 27
e 21 28
e 21 29
e 21 30
e 21 31
e 21 32
e 21 34
e 21 35
e 21 37
e 21 38
e 21 39
e 21 40
e 21 42
e 21 43
e 21 45
e 21 46
e 21 47
e 21 50
e 21 51
e 21 52
e 21 53
e 21 54
e 21 56
e 21 62
e 21 63
e 21 64
e 21 66
e 21 69
e 21 70
e 21 72
e 21 76
e 21 79
e 21 80
e 21 81
e 21 89
e 21 91
e 21 94
e 21 98
e 21 99
e 22 23
e 22 24
e 22 25
e 22 26
e 22 27
e 22 28
e 22 30
e 22 31
e 22 33
e 22 36
e 22 38
e 22 39
e 22 40
e 22 42
e 22 44
e 22 46
e 22 47
e 22 50
e 22 51
e 22 52
e 22 55
e 22 58
e 22 59
e 22 60
e 22 61
e 22 62
e 22 63
e 22 64
e 22 65
e 22 69
e 22 70
e 22 71
e 22 73
e 22 76
e 22 77
e 22 85
e 22 90
e 22 92
e 22 94
e 22 96
e 22 99
e 23 24
e 23 25
e 23 26
e 23 27
e 23 29
e 23 31
e 23 32
e 23 35
e 23 38
e 23 39
e 23 40
e 23 42
e 23 43
e 23 44
e 23 45
e 23 47
e 23 49
e 23 50
e 23 61
e 23 63
e 23 64
e 23 67
e 23 71
e 23 72
e 23 74
e 23 76
e 23 77
e 23 78
e 23 81
e 23 82
e 23 83
e 23 85
e 23 93
e 23 97
e 23 99
e 23 100
e 24 25
e 24 26
e 24 28
e 24 29
e 24 30
e 24 31
e 24 33
e 24 34
e 24 35
e 24 37
e 24 38
e 24 40
e 24 41
e 24 42
e 24 44
e 24 53
e 24 56
e 24 60
e 24 61
e 24 65
e 24 75
e 24 79
e 24 80
e 24 84
e 24 86
e 24 89
e 24 91
e 24 97
e 24 99
e 25 26
e 25 32
e 25 33
e 25 34
e 25 36
e 25 40
e 25 46
e 25 50
e 25 53
e 25 54
e 25 55
e 25 58
e 25 59
e 25 63
e 25 65
e 25 75
e 25 76
e 25 80
e 25 86
e 25 87
e 25 89
e 25 91
e 25 99
e 26 27
e 26 28
e 26 29
e 26 30
e 26 33
e 26 34
e 26 35
e 26 36
e 26 37
e 26 38
e 26 39
e 26 40
e 26 41
e 26 43
e 26 45
e 26 46
e 26 47
e 26 48
e 26 49
e 26 51
e 26 52
e 26 53
e 26 54
e 26 55
e 26 56
e 26 57
e 26 58
e 26 61
e 26 64
e 26 68
e 26 71
e 26 72
e 26 74
e 26 80
e 26 99
e 27 28
e 27 30
e 27 36
e 27 37
e 27 39
e 27 43
e 27 45
e 27 46
e 27 48
e 27 49
e 27 52
e 27 58
e 27 68
e 27 69
e 27 71
e 27 72
e 27 77
e 27 81
e 27 83
e 27 86
e 27 87
e 27 93
e 27 99
e 28 29
e 28 32
e 28 33
e 28 34
e 28 35
e 28 37
e 28 41
e 28 42
e 28 45
e 28 48
e 28 53
e 28 54
e 28 55
e 28 56
e 28 60
e 28 61
e 28 72
e 28 82
e 28 83
e 28 87
e 28 91
e 28 92
e 28 93
e 28 97
e 28 98
e 29 31
e 29 33
e 29 34
e 29 36
e 29 37
e 29 39
e 29 40
e 29 41
e 29 42
e 29 43
e 29 45
e 29 49
e 29 50
e 29 53
e 29 54
e 29 59
e 29 62
e 29 63
e 29 68
e 29 69
e 29 71
e 29 75
e 29 81
e 29 85
e 29 86
e 29 87
e 29 91
e 29 97
e 29 100
e 30 31
e 30 35
e 30 36
e 30 38
e 30 40
e 30 43
e 30 44
e 30 45
e 30 52
e 30 54
e 30 61
e 30 64
e 30 66
e 30 67
e 30 70
e 30 71
e 30 72
e 30 73
e 30 74
e 30 75
e 30 76
e 30 79
e 30 82
e 30 83
e 30 89
e 30 90
e 31 32
e 31 37
e 31 38
e 31 46
e 31 57
e 31 60
e 31 62
e 31 68
e 31 74
e 31 77
e 31 94
e 31 95
e 31 97
e 32 34
e 32 36
e 32 38
e 32 41
e 32 48
e 32 49
e 32 50
e 32 61
e 32 64
e 32 65
e 32 66
e 32 68
e 32 71
e 32 73
e 32 79
e 32 83
e 32 87
e 33 34
e 33 35
e 33 37
e 33 39
e 33 41
e 33 42
e 33 43
e 33 46
e 33 48
e 33 50
e 33 54
e 33 57
e 33 58
e 33 67
e 33 72
e 33 75
e 33 76
e 33 77
e 33 82
e 33 83
e 33 84
e 33 90
e 33 92
e 33 93
e 33 100
e 34 36
e 34 39
e 34 42
e 34 44
e 34 46
e 34 47
e 34 48
e 34 52
e 34 54
e 34 55
e 34 59
e 34 66
e 34 67
e 34 73
e 34 78
e 34 80
e 34 85
e 34 89
e 35 38
e 35 41
e 35 44
e 35 48
e 35 52
e 35 56
e 35 57
e 35 59
e 35 60
e 35 66
e 35 69
e 35 70
e 35 72
e 35 77
e 35 83
e 35 84
e 35 89
e 35 95
e 35 98
e 35 100
e 36 40
e 36 43
e 36 45
e 36 47
e 36 51
e 36 57
e 36 59
e 36 68
e 36 75
e 36 82
e 36 93
e 36 94
e 37 38
e 37 39
e 37 42
e 37 47
e 37 48
e 37 50
e 37 54
e 37 56
e 37 62
e 37 63
e 37 65
e 37 66
e 37 68
e 37 71
e 37 75
e 37 76
e 37 77
e 37 79
e 37 86
e 37 88
e 37 89
e 37 92
e 37 98
e 38 41
e 38 42
e 38 43
e 38 46
e 38 48
e 38 50
e 38 53
e 38 57
e 38 69
e 38 78
e 38 90
e 38 91
e 38 93
e 38 95
e 38 100
e 39 40
e 39 42
e 39 43
e 39 44
e 39 47
e 39 50
e 39 53
e 39 54
e 39 55
e 39 56
e 39 60
e 39 67
e 39 70
e 39 76
e 39 81
e 39 88
e 39 92
e 39 98
e 40 44
e 40 47
e 40 49
e 40 50
e 40 52
e 40 53
e 40 57
e 40 60
e 40 65
e 40 67
e 40 71
e 40 74
e 40 75
e 40 76
e 40 78
e 40 83
e 40 85
e 40 88
e 40 98
e 41 42
e 41 44
e 41 48
e 41 53
e 41 56
e 41 60
e 41 64
e 41 81
e 41 84
e 41 85
e 41 87
e 41 89
e 41 91
e 42 43
e 42 44
e 42 45
e 42 50
e 42 58
e 42 62
e 42 67
e 42 70
e 42 77
e 42 79
e 42 97
e 43 44
e 43 46
e 43 47
e 43 49
e 43 52
e 43 53
e 43 55
e 43 57
e 43 58
e 43 59
e 43 60
e 43 61
e 43 69
e 43 71
e 43 73
e 43 78
e 43 81
e 43 90
e 43 95
e 43 97
e 44 52
e 44 57
e 44 65
e 44 75
e 44 77
e 44 83
e 44 92
e 44 94
e 45 46
e 45 48
e 45 51
e 45 53
e 45 57
e 45 70
e 45 75
e 45 84
e 45 97
e 45 100
e 46 51
e 46 59
e 46 62
e 46 65
e 46 72
e 46 73
e 46 77
e 46 84
e 46 85
e 46 86
e 46 92
e 47 49
e 47 52
e 47 56
e 47 59
e 47 69
e 47 70
e 47 73
e 47 78
e 47 79
e 47 87
e 47 89
e 47 95
e 48 52
e 48 65
e 48 73
e 48 74
e 48 80
e 48 85
e 48 88
e 48 90
e 48 95
e 48 96
e 48 100
e 49 53
e 49 62
e 49 67
e 49 73
e 49 74
e 49 77
e 49 81
e 49 82
e 49 85
e 49 87
e 49 89
e 49 98
e 50 51
e 50 56
e 50 58
e 50 60
e 50 66
e 50 69
e 50 71
e 50 72
e 50 74
e 50 81
e 50 85
e 50 87
e 50 91
e 50 100
e 51 54
e 51 55
e 51 66
e 51 73
e 51 86
e 51 91
e 51 94
e 52 55
e 52 59
e 52 61
e 52 62
e 52 66
e 52 70
e 52 74
e 52 78
e 52 82
e 52 83
e 52 84
e 52 88
e 52 89
e 52 90
e 52 92
e 52 96
e 52 97
e 53 55
e 53 56
e 53 58
e 53 60
e 53 67
e 53 68
e 53 69
e 53 73
e 53 75
e 53 81
e 53 98
e 54 62
e 54 63
e 54 73
e 54 75
e 54 92
e 55 59
e 55 61
e 55 65
e 55 67
e 55 69
e 55 70
e 55 78
e 55 80
e 55 83
e 55 87
e 55 88
e 55 97
e 56 59
e 56 60
e 56 67
e 56 72
e 56 75
e 56 92
e 57 64
e 57 72
e 57 80
e 57 83
e 57 90
e 57 91
e 57 93
e 57 96
e 58 59
e 58 67
e 58 71
e 58 74
e 58 76
e 58 86
e 58 93
e 58 96
e 59 62
e 59 63
e 59 65
e 59 67
e 59 82
e 59 86
e 59 92
e 59 95
e 60 63
e 60 67
e 60 71
e 60 73
e 60 78
e 60 82
e 60 84
e 60 94
e 60 99
e 61 63
e 61 64
e 61 74
e 61 76
e 61 83
e 61 94
e 61 95
e 62 64
e 62 68
e 62 70
e 62 84
e 62 94
e 62 96
e 62 100
e 63 65
e 63 66
e 63 77
e 63 82
e 63 86
e 63 88
e 63 93
e 64 65
e 64 68
e 64 69
e 64 82
e 64 88
e 64 93
e 64 99
e 64 100
e 65 70
e 65 85
e 66 69
e 66 70
e 66 82
e 66 96
e 67 68
e 67 76
e 67 80
e 68 69
e 68 79
e 68 80
e 68 87
e 68 96
e 69 79
e 69 81
e 70 84
e 70 90
e 71 80
e 71 86
e 71 90
e 71 98
e 72 78
e 72 90
e 72 96
e 73 81
e 73 87
e 73 92
e 73 94
e 73 97
e 74 76
e 74 80
e 74 82
e 74 90
e 76 86
e 76 91
e 76 100
e 77 80
e 77 89
e 77 91
e 78 81
e 78 83
e 78 94
e 79 85
e 79 95
e 80 85
e 80 87
e 82 86
e 82 88
e 82 98
e 83 97
e 83 99
e 83 100
e 85 88
e 86 91
e 86 96
e 87 93
e 87 95
e 88 93
e 88 99
e 89 100
e 90 99
e 91 98
e 91 99
e 92 96
e 93 98
e 95 98
